(set-info :origin "benchmarks generated by liquid types http://goto.ucsd.edu/~rjhala/liquid/")
(set-logic HORN)
(declare-fun k_31
             (Int
              Int
              Int
              Int
              Int
              Int
              Int
              Int
              Int
              Int
              (Array Int Int)
              (Array Int Int)
              (Array Int Int)
              (Array Int Int))
             Bool)
(declare-fun k_24
             (Int
              Int
              Int
              (Array Int Int)
              (Array Int Int)
              (Array Int Int)
              (Array Int Int))
             Bool)
(declare-fun k_33
             (Int
              Int
              Int
              Int
              Int
              Int
              Int
              Int
              Int
              Int
              (Array Int Int)
              (Array Int Int)
              (Array Int Int)
              (Array Int Int))
             Bool)
(declare-fun k_21
             (Int
              Int
              Int
              (Array Int Int)
              (Array Int Int)
              (Array Int Int)
              (Array Int Int))
             Bool)
(declare-fun k_32
             (Int
              Int
              Int
              Int
              Int
              Int
              Int
              Int
              Int
              Int
              (Array Int Int)
              (Array Int Int)
              (Array Int Int)
              (Array Int Int))
             Bool)
(declare-fun k_23
             (Int
              Int
              Int
              Int
              (Array Int Int)
              (Array Int Int)
              (Array Int Int)
              (Array Int Int))
             Bool)
(declare-fun k_20
             (Int
              Int
              Int
              Int
              (Array Int Int)
              (Array Int Int)
              (Array Int Int)
              (Array Int Int))
             Bool)
(declare-fun k_35
             (Int
              Int
              Int
              Int
              Int
              Int
              Int
              Int
              Int
              (Array Int Int)
              (Array Int Int)
              (Array Int Int)
              (Array Int Int))
             Bool)
(declare-fun k_25
             (Int
              Int
              Int
              Int
              Int
              Int
              (Array Int Int)
              (Array Int Int)
              (Array Int Int)
              (Array Int Int))
             Bool)
(declare-fun k_34
             (Int
              Int
              Int
              Int
              Int
              Int
              Int
              Int
              Int
              (Array Int Int)
              (Array Int Int)
              (Array Int Int)
              (Array Int Int))
             Bool)
(declare-fun k_27
             (Int
              Int
              Int
              Int
              (Array Int Int)
              (Array Int Int)
              (Array Int Int)
              (Array Int Int))
             Bool)
(declare-fun k_29
             (Int
              Int
              Int
              Int
              Int
              Int
              Int
              Int
              Int
              (Array Int Int)
              (Array Int Int)
              (Array Int Int)
              (Array Int Int))
             Bool)
(assert (forall ((VV Int)
         (EREAD Int)
         (__cil_tmp3_alloc Int)
         (lqn_0 Int)
         (ret_alloc Int)
         (ret_alloc__SSA__blk_0_1 Int)
         (C31_Ix_0 Int)
         (FINAL0 Int)
         (tmp_alloc Int)
         (tmp_alloc__SSA__blk_0_1 Int)
         (EWRITE Int)
         (BLOCK_END (Array Int Int))
         (DEREF (Array Int Int))
         (BLOCK_BEGIN (Array Int Int))
         (UNCHECKED (Array Int Int)))
  (let ((a!1 (= FINAL0
                (select DEREF
                        (+ (select BLOCK_BEGIN ret_alloc__SSA__blk_0_1) 0)))))
    (=> (and (= tmp_alloc tmp_alloc)
             (= ret_alloc ret_alloc)
             (= VV VV)
             (= EWRITE EWRITE)
             (= EREAD EREAD)
             (= C31_Ix_0 C31_Ix_0)
             (= VV C31_Ix_0)
             (= (+ tmp_alloc__SSA__blk_0_1 __cil_tmp3_alloc)
                (select BLOCK_END tmp_alloc__SSA__blk_0_1))
             (> tmp_alloc__SSA__blk_0_1 0)
             (= tmp_alloc__SSA__blk_0_1
                (select BLOCK_BEGIN tmp_alloc__SSA__blk_0_1))
             (= ret_alloc__SSA__blk_0_1 tmp_alloc__SSA__blk_0_1)
             (= lqn_0 0)
             (= __cil_tmp3_alloc 4)
             a!1
             (= FINAL0 3)
             (= C31_Ix_0 FINAL0)
             true)
        (k_25 C31_Ix_0
              EREAD
              EWRITE
              VV
              ret_alloc
              tmp_alloc
              BLOCK_END
              DEREF
              BLOCK_BEGIN
              UNCHECKED)))))
(assert (forall ((VV Int)
         (EREAD Int)
         (__cil_tmp3_alloc Int)
         (lqn_0 Int)
         (ret_alloc Int)
         (ret_alloc__SSA__blk_0_1 Int)
         (FINAL0 Int)
         (A4_Ix_0 Int)
         (tmp_alloc Int)
         (tmp_alloc__SSA__blk_0_1 Int)
         (EWRITE Int)
         (BLOCK_END (Array Int Int))
         (DEREF (Array Int Int))
         (BLOCK_BEGIN (Array Int Int))
         (UNCHECKED (Array Int Int)))
  (let ((a!1 (= FINAL0
                (select DEREF
                        (+ (select BLOCK_BEGIN ret_alloc__SSA__blk_0_1) 0)))))
    (=> (and (= VV VV)
             (= EWRITE EWRITE)
             (= EREAD EREAD)
             (= A4_Ix_0 A4_Ix_0)
             (= VV A4_Ix_0)
             (= (+ tmp_alloc__SSA__blk_0_1 __cil_tmp3_alloc)
                (select BLOCK_END tmp_alloc__SSA__blk_0_1))
             (> tmp_alloc__SSA__blk_0_1 0)
             (= tmp_alloc__SSA__blk_0_1
                (select BLOCK_BEGIN tmp_alloc__SSA__blk_0_1))
             (= ret_alloc__SSA__blk_0_1 tmp_alloc__SSA__blk_0_1)
             (= lqn_0 0)
             (= __cil_tmp3_alloc 4)
             a!1
             (= FINAL0 3)
             (k_25 A4_Ix_0
                   EREAD
                   EWRITE
                   A4_Ix_0
                   ret_alloc
                   tmp_alloc
                   BLOCK_END
                   DEREF
                   BLOCK_BEGIN
                   UNCHECKED)
             true)
        (k_23 A4_Ix_0 EREAD EWRITE VV BLOCK_END DEREF BLOCK_BEGIN UNCHECKED)))))
(assert (forall ((VV Int)
         (EREAD Int)
         (__cil_tmp3_alloc Int)
         (lqn_0 Int)
         (ret_alloc__SSA__blk_0_1 Int)
         (FINAL0 Int)
         (tmp_alloc__SSA__blk_0_1 Int)
         (EWRITE Int)
         (BLOCK_END (Array Int Int))
         (DEREF (Array Int Int))
         (BLOCK_BEGIN (Array Int Int))
         (UNCHECKED (Array Int Int)))
  (let ((a!1 (= FINAL0
                (select DEREF
                        (+ (select BLOCK_BEGIN ret_alloc__SSA__blk_0_1) 0)))))
    (=> (and (= VV VV)
             (= EWRITE EWRITE)
             (= EREAD EREAD)
             (= VV ret_alloc__SSA__blk_0_1)
             (= (+ tmp_alloc__SSA__blk_0_1 __cil_tmp3_alloc)
                (select BLOCK_END tmp_alloc__SSA__blk_0_1))
             (> tmp_alloc__SSA__blk_0_1 0)
             (= tmp_alloc__SSA__blk_0_1
                (select BLOCK_BEGIN tmp_alloc__SSA__blk_0_1))
             (= ret_alloc__SSA__blk_0_1 tmp_alloc__SSA__blk_0_1)
             (= lqn_0 0)
             (= __cil_tmp3_alloc 4)
             a!1
             (= FINAL0 3)
             true)
        (k_24 EREAD EWRITE VV BLOCK_END DEREF BLOCK_BEGIN UNCHECKED)))))
(assert (forall ((VV Int)
         (tmp_alloc__SSA__blk_0_1 Int)
         (lqn_0 Int)
         (ret_alloc__SSA__blk_0_1 Int)
         (C31_Ix_0 Int)
         (FINAL0 Int)
         (__cil_tmp3_alloc Int)
         (BLOCK_END (Array Int Int))
         (DEREF (Array Int Int))
         (BLOCK_BEGIN (Array Int Int))
         (UNCHECKED (Array Int Int)))
  (let ((a!1 (= FINAL0
                (select DEREF
                        (+ (select BLOCK_BEGIN ret_alloc__SSA__blk_0_1) 0)))))
    (=> (and (not (= VV FINAL0))
             false
             (= FINAL0 3)
             a!1
             (= __cil_tmp3_alloc 4)
             (= lqn_0 0)
             (= ret_alloc__SSA__blk_0_1 tmp_alloc__SSA__blk_0_1)
             (= tmp_alloc__SSA__blk_0_1
                (select BLOCK_BEGIN tmp_alloc__SSA__blk_0_1))
             (> tmp_alloc__SSA__blk_0_1 0)
             (= (+ tmp_alloc__SSA__blk_0_1 __cil_tmp3_alloc)
                (select BLOCK_END tmp_alloc__SSA__blk_0_1))
             (= VV C31_Ix_0)
             true)
        false))))
(assert (forall ((VV Int)
         (EREAD Int)
         (__cil_tmp3_alloc Int)
         (lqn_0 Int)
         (ret_alloc Int)
         (ret_alloc__SSA__blk_0_1 Int)
         (FINAL0 Int)
         (A4_Ix_0 Int)
         (tmp_alloc Int)
         (tmp_alloc__SSA__blk_0_1 Int)
         (EWRITE Int)
         (BLOCK_END (Array Int Int))
         (DEREF (Array Int Int))
         (BLOCK_BEGIN (Array Int Int))
         (UNCHECKED (Array Int Int)))
  (let ((a!1 (= FINAL0
                (select DEREF
                        (+ (select BLOCK_BEGIN ret_alloc__SSA__blk_0_1) 0)))))
    (=> (and (= tmp_alloc tmp_alloc)
             (= ret_alloc ret_alloc)
             (= VV VV)
             (= EWRITE EWRITE)
             (= EREAD EREAD)
             (= A4_Ix_0 A4_Ix_0)
             (= VV A4_Ix_0)
             (= (+ tmp_alloc__SSA__blk_0_1 __cil_tmp3_alloc)
                (select BLOCK_END tmp_alloc__SSA__blk_0_1))
             (> tmp_alloc__SSA__blk_0_1 0)
             (= tmp_alloc__SSA__blk_0_1
                (select BLOCK_BEGIN tmp_alloc__SSA__blk_0_1))
             (= ret_alloc__SSA__blk_0_1 tmp_alloc__SSA__blk_0_1)
             (= lqn_0 0)
             (= __cil_tmp3_alloc 4)
             a!1
             (= FINAL0 3)
             false
             true)
        (k_25 A4_Ix_0
              EREAD
              EWRITE
              VV
              ret_alloc
              tmp_alloc
              BLOCK_END
              DEREF
              BLOCK_BEGIN
              UNCHECKED)))))
(assert (forall ((VV Int)
         (__cil_tmp3_alloc Int)
         (BLOCK_END (Array Int Int))
         (DEREF (Array Int Int))
         (BLOCK_BEGIN (Array Int Int))
         (UNCHECKED (Array Int Int)))
  (=> (and (not (>= VV 0)) (= __cil_tmp3_alloc 4) (= VV __cil_tmp3_alloc) true)
      false)))
(assert (forall ((tmp_alloc__SSA__blk_0_1 Int)
         (lqn_0 Int)
         (VV Int)
         (__cil_tmp3_alloc Int)
         (ret_alloc__SSA__blk_0_1 Int)
         (BLOCK_END (Array Int Int))
         (DEREF (Array Int Int))
         (BLOCK_BEGIN (Array Int Int))
         (UNCHECKED (Array Int Int)))
  (let ((a!1 (or (= (select UNCHECKED VV) 1)
                 (and (<= (select BLOCK_BEGIN VV) VV)
                      (< VV (select BLOCK_END VV))
                      true)
                 false)))
    (=> (and (not a!1)
             (= __cil_tmp3_alloc 4)
             (= lqn_0 0)
             (= ret_alloc__SSA__blk_0_1 tmp_alloc__SSA__blk_0_1)
             (= tmp_alloc__SSA__blk_0_1
                (select BLOCK_BEGIN tmp_alloc__SSA__blk_0_1))
             (> tmp_alloc__SSA__blk_0_1 0)
             (= (+ tmp_alloc__SSA__blk_0_1 __cil_tmp3_alloc)
                (select BLOCK_END tmp_alloc__SSA__blk_0_1))
             (< VV (+ ret_alloc__SSA__blk_0_1 4))
             (<= ret_alloc__SSA__blk_0_1 VV)
             (= (select UNCHECKED VV)
                (select UNCHECKED ret_alloc__SSA__blk_0_1))
             (= (select BLOCK_END VV)
                (select BLOCK_END ret_alloc__SSA__blk_0_1))
             (= (select BLOCK_BEGIN VV)
                (select BLOCK_BEGIN ret_alloc__SSA__blk_0_1))
             true)
        false))))
(assert (forall ((VV Int)
         (EREAD Int)
         (__cil_tmp1_dont_alloc Int)
         (A3_Ix_0 Int)
         (EWRITE Int)
         (__cil_tmp2_dont_alloc Int)
         (BLOCK_END (Array Int Int))
         (DEREF (Array Int Int))
         (BLOCK_BEGIN (Array Int Int))
         (UNCHECKED (Array Int Int)))
  (=> (and (= VV VV)
           (= EWRITE EWRITE)
           (= EREAD EREAD)
           (= A3_Ix_0 A3_Ix_0)
           (= VV A3_Ix_0)
           (= __cil_tmp2_dont_alloc __cil_tmp1_dont_alloc)
           (= __cil_tmp1_dont_alloc 0)
           (k_27 A3_Ix_0
                 EREAD
                 EWRITE
                 A3_Ix_0
                 BLOCK_END
                 DEREF
                 BLOCK_BEGIN
                 UNCHECKED)
           true)
      (k_20 A3_Ix_0 EREAD EWRITE VV BLOCK_END DEREF BLOCK_BEGIN UNCHECKED))))
(assert (forall ((__cil_tmp1_dont_alloc Int)
         (VV Int)
         (EREAD Int)
         (EWRITE Int)
         (__cil_tmp2_dont_alloc Int)
         (BLOCK_END (Array Int Int))
         (DEREF (Array Int Int))
         (BLOCK_BEGIN (Array Int Int))
         (UNCHECKED (Array Int Int)))
  (=> (and (= VV VV)
           (= EWRITE EWRITE)
           (= EREAD EREAD)
           (= VV __cil_tmp2_dont_alloc)
           (= __cil_tmp2_dont_alloc __cil_tmp1_dont_alloc)
           (= __cil_tmp1_dont_alloc 0)
           true)
      (k_21 EREAD EWRITE VV BLOCK_END DEREF BLOCK_BEGIN UNCHECKED))))
(assert (forall ((VV Int)
         (EREAD Int)
         (EWRITE Int)
         (A3_Ix_0 Int)
         (BLOCK_END (Array Int Int))
         (DEREF (Array Int Int))
         (BLOCK_BEGIN (Array Int Int))
         (UNCHECKED (Array Int Int)))
  (=> (and (= VV VV)
           (= EWRITE EWRITE)
           (= EREAD EREAD)
           (= A3_Ix_0 A3_Ix_0)
           (= VV A3_Ix_0)
           false
           true)
      (k_27 A3_Ix_0 EREAD EWRITE VV BLOCK_END DEREF BLOCK_BEGIN UNCHECKED))))
(assert (forall ((tmp___0_main__SSA__blk_2_1 Int)
         (VV Int)
         (p_main Int)
         (EREAD Int)
         (tmp___2_main Int)
         (tmp___3_main Int)
         (tmp___1_main Int)
         (tmp___2_main__SSA__blk_2_1 Int)
         (tmp___0_main Int)
         (tmp___3_main__SSA__blk_0_1 Int)
         (EWRITE Int)
         (BLOCK_END (Array Int Int))
         (DEREF (Array Int Int))
         (BLOCK_BEGIN (Array Int Int))
         (UNCHECKED (Array Int Int)))
  (=> (and (= tmp___3_main__SSA__blk_0_1 tmp___3_main__SSA__blk_0_1)
           (= tmp___3_main tmp___3_main)
           (= tmp___2_main__SSA__blk_2_1 tmp___2_main__SSA__blk_2_1)
           (= tmp___2_main tmp___2_main)
           (= tmp___1_main tmp___1_main)
           (= tmp___0_main tmp___0_main)
           (= p_main p_main)
           (= VV VV)
           (= EWRITE EWRITE)
           (= EREAD EREAD)
           (not (= tmp___3_main__SSA__blk_0_1 0))
           (= tmp___2_main__SSA__blk_2_1 tmp___0_main__SSA__blk_2_1)
           (k_35 EREAD
                 EWRITE
                 tmp___0_main__SSA__blk_2_1
                 p_main
                 tmp___0_main
                 tmp___1_main
                 tmp___2_main
                 tmp___3_main
                 tmp___3_main__SSA__blk_0_1
                 BLOCK_END
                 DEREF
                 BLOCK_BEGIN
                 UNCHECKED)
           true)
      (k_31 EREAD
            EWRITE
            VV
            p_main
            tmp___0_main
            tmp___1_main
            tmp___2_main
            tmp___2_main__SSA__blk_2_1
            tmp___3_main
            tmp___3_main__SSA__blk_0_1
            BLOCK_END
            DEREF
            BLOCK_BEGIN
            UNCHECKED))))
(assert (forall ((tmp___0_main__SSA__blk_2_1 Int)
         (VV Int)
         (p_main Int)
         (EREAD Int)
         (tmp___2_main Int)
         (tmp___3_main Int)
         (tmp___1_main Int)
         (tmp___2_main__SSA__blk_2_1 Int)
         (tmp___0_main Int)
         (tmp___3_main__SSA__blk_0_1 Int)
         (EWRITE Int)
         (BLOCK_END (Array Int Int))
         (DEREF (Array Int Int))
         (BLOCK_BEGIN (Array Int Int))
         (UNCHECKED (Array Int Int)))
  (=> (and (= tmp___3_main__SSA__blk_0_1 tmp___3_main__SSA__blk_0_1)
           (= tmp___3_main tmp___3_main)
           (= tmp___2_main__SSA__blk_2_1 tmp___2_main__SSA__blk_2_1)
           (= tmp___2_main tmp___2_main)
           (= tmp___1_main tmp___1_main)
           (= tmp___0_main tmp___0_main)
           (= p_main p_main)
           (= VV VV)
           (= EWRITE EWRITE)
           (= EREAD EREAD)
           (= VV tmp___2_main__SSA__blk_2_1)
           (not (= tmp___3_main__SSA__blk_0_1 0))
           (= tmp___2_main__SSA__blk_2_1 tmp___0_main__SSA__blk_2_1)
           (k_35 EREAD
                 EWRITE
                 tmp___0_main__SSA__blk_2_1
                 p_main
                 tmp___0_main
                 tmp___1_main
                 tmp___2_main
                 tmp___3_main
                 tmp___3_main__SSA__blk_0_1
                 BLOCK_END
                 DEREF
                 BLOCK_BEGIN
                 UNCHECKED)
           true)
      (k_32 EREAD
            EWRITE
            VV
            p_main
            tmp___0_main
            tmp___1_main
            tmp___2_main
            tmp___2_main__SSA__blk_2_1
            tmp___3_main
            tmp___3_main__SSA__blk_0_1
            BLOCK_END
            DEREF
            BLOCK_BEGIN
            UNCHECKED))))
(assert (forall ((tmp___0_main__SSA__blk_2_1 Int)
         (VV Int)
         (p_main Int)
         (EREAD Int)
         (tmp___2_main Int)
         (tmp___3_main Int)
         (tmp___1_main Int)
         (tmp___2_main__SSA__blk_2_1 Int)
         (tmp___0_main Int)
         (tmp___3_main__SSA__blk_0_1 Int)
         (EWRITE Int)
         (BLOCK_END (Array Int Int))
         (DEREF (Array Int Int))
         (BLOCK_BEGIN (Array Int Int))
         (UNCHECKED (Array Int Int)))
  (=> (and (= tmp___3_main__SSA__blk_0_1 tmp___3_main__SSA__blk_0_1)
           (= tmp___3_main tmp___3_main)
           (= tmp___2_main__SSA__blk_2_1 tmp___2_main__SSA__blk_2_1)
           (= tmp___2_main tmp___2_main)
           (= tmp___1_main tmp___1_main)
           (= tmp___0_main tmp___0_main)
           (= p_main p_main)
           (= VV VV)
           (= EWRITE EWRITE)
           (= EREAD EREAD)
           (= VV tmp___0_main__SSA__blk_2_1)
           (not (= tmp___3_main__SSA__blk_0_1 0))
           (= tmp___2_main__SSA__blk_2_1 tmp___0_main__SSA__blk_2_1)
           (k_35 EREAD
                 EWRITE
                 tmp___0_main__SSA__blk_2_1
                 p_main
                 tmp___0_main
                 tmp___1_main
                 tmp___2_main
                 tmp___3_main
                 tmp___3_main__SSA__blk_0_1
                 BLOCK_END
                 DEREF
                 BLOCK_BEGIN
                 UNCHECKED)
           true)
      (k_33 EREAD
            EWRITE
            VV
            p_main
            tmp___0_main
            tmp___1_main
            tmp___2_main
            tmp___2_main__SSA__blk_2_1
            tmp___3_main
            tmp___3_main__SSA__blk_0_1
            BLOCK_END
            DEREF
            BLOCK_BEGIN
            UNCHECKED))))
(assert (forall ((VV Int)
         (p_main Int)
         (EREAD Int)
         (tmp___2_main Int)
         (tmp___3_main Int)
         (tmp___1_main Int)
         (tmp___2_main__SSA__blk_3_1 Int)
         (tmp___0_main Int)
         (tmp___1_main__SSA__blk_3_1 Int)
         (tmp___3_main__SSA__blk_0_1 Int)
         (EWRITE Int)
         (BLOCK_END (Array Int Int))
         (DEREF (Array Int Int))
         (BLOCK_BEGIN (Array Int Int))
         (UNCHECKED (Array Int Int)))
  (let ((a!1 (and (= tmp___3_main__SSA__blk_0_1 tmp___3_main__SSA__blk_0_1)
                  (= tmp___3_main tmp___3_main)
                  (= tmp___2_main__SSA__blk_3_1 tmp___2_main__SSA__blk_3_1)
                  (= tmp___2_main tmp___2_main)
                  (= tmp___1_main tmp___1_main)
                  (= tmp___0_main tmp___0_main)
                  (= p_main p_main)
                  (= VV VV)
                  (= EWRITE EWRITE)
                  (= EREAD EREAD)
                  (= VV tmp___1_main__SSA__blk_3_1)
                  (not (not (= tmp___3_main__SSA__blk_0_1 0)))
                  (= tmp___2_main__SSA__blk_3_1 tmp___1_main__SSA__blk_3_1)
                  (k_34 EREAD
                        EWRITE
                        tmp___1_main__SSA__blk_3_1
                        p_main
                        tmp___0_main
                        tmp___1_main
                        tmp___2_main
                        tmp___3_main
                        tmp___3_main__SSA__blk_0_1
                        BLOCK_END
                        DEREF
                        BLOCK_BEGIN
                        UNCHECKED)
                  true)))
    (=> a!1
        (k_31 EREAD
              EWRITE
              VV
              p_main
              tmp___0_main
              tmp___1_main
              tmp___2_main
              tmp___2_main__SSA__blk_3_1
              tmp___3_main
              tmp___3_main__SSA__blk_0_1
              BLOCK_END
              DEREF
              BLOCK_BEGIN
              UNCHECKED)))))
(assert (forall ((VV Int)
         (p_main Int)
         (EREAD Int)
         (tmp___2_main Int)
         (tmp___3_main Int)
         (tmp___1_main Int)
         (tmp___2_main__SSA__blk_3_1 Int)
         (tmp___0_main Int)
         (tmp___1_main__SSA__blk_3_1 Int)
         (tmp___3_main__SSA__blk_0_1 Int)
         (EWRITE Int)
         (BLOCK_END (Array Int Int))
         (DEREF (Array Int Int))
         (BLOCK_BEGIN (Array Int Int))
         (UNCHECKED (Array Int Int)))
  (let ((a!1 (and (= tmp___3_main__SSA__blk_0_1 tmp___3_main__SSA__blk_0_1)
                  (= tmp___3_main tmp___3_main)
                  (= tmp___2_main__SSA__blk_3_1 tmp___2_main__SSA__blk_3_1)
                  (= tmp___2_main tmp___2_main)
                  (= tmp___1_main tmp___1_main)
                  (= tmp___0_main tmp___0_main)
                  (= p_main p_main)
                  (= VV VV)
                  (= EWRITE EWRITE)
                  (= EREAD EREAD)
                  (= VV tmp___2_main__SSA__blk_3_1)
                  (not (not (= tmp___3_main__SSA__blk_0_1 0)))
                  (= tmp___2_main__SSA__blk_3_1 tmp___1_main__SSA__blk_3_1)
                  (k_34 EREAD
                        EWRITE
                        tmp___1_main__SSA__blk_3_1
                        p_main
                        tmp___0_main
                        tmp___1_main
                        tmp___2_main
                        tmp___3_main
                        tmp___3_main__SSA__blk_0_1
                        BLOCK_END
                        DEREF
                        BLOCK_BEGIN
                        UNCHECKED)
                  true)))
    (=> a!1
        (k_32 EREAD
              EWRITE
              VV
              p_main
              tmp___0_main
              tmp___1_main
              tmp___2_main
              tmp___2_main__SSA__blk_3_1
              tmp___3_main
              tmp___3_main__SSA__blk_0_1
              BLOCK_END
              DEREF
              BLOCK_BEGIN
              UNCHECKED)))))
(assert (forall ((VV Int)
         (p_main Int)
         (EREAD Int)
         (tmp___2_main Int)
         (tmp___3_main Int)
         (tmp___1_main Int)
         (tmp___2_main__SSA__blk_3_1 Int)
         (tmp___0_main Int)
         (tmp___1_main__SSA__blk_3_1 Int)
         (tmp___3_main__SSA__blk_0_1 Int)
         (EWRITE Int)
         (BLOCK_END (Array Int Int))
         (DEREF (Array Int Int))
         (BLOCK_BEGIN (Array Int Int))
         (UNCHECKED (Array Int Int)))
  (let ((a!1 (and (= tmp___3_main__SSA__blk_0_1 tmp___3_main__SSA__blk_0_1)
                  (= tmp___3_main tmp___3_main)
                  (= tmp___2_main__SSA__blk_3_1 tmp___2_main__SSA__blk_3_1)
                  (= tmp___2_main tmp___2_main)
                  (= tmp___1_main tmp___1_main)
                  (= tmp___0_main tmp___0_main)
                  (= p_main p_main)
                  (= VV VV)
                  (= EWRITE EWRITE)
                  (= EREAD EREAD)
                  (not (not (= tmp___3_main__SSA__blk_0_1 0)))
                  (= tmp___2_main__SSA__blk_3_1 tmp___1_main__SSA__blk_3_1)
                  (k_34 EREAD
                        EWRITE
                        tmp___1_main__SSA__blk_3_1
                        p_main
                        tmp___0_main
                        tmp___1_main
                        tmp___2_main
                        tmp___3_main
                        tmp___3_main__SSA__blk_0_1
                        BLOCK_END
                        DEREF
                        BLOCK_BEGIN
                        UNCHECKED)
                  true)))
    (=> a!1
        (k_33 EREAD
              EWRITE
              VV
              p_main
              tmp___0_main
              tmp___1_main
              tmp___2_main
              tmp___2_main__SSA__blk_3_1
              tmp___3_main
              tmp___3_main__SSA__blk_0_1
              BLOCK_END
              DEREF
              BLOCK_BEGIN
              UNCHECKED)))))
(assert (forall ((tmp___1_main__SSA__phi_4 Int)
         (VV Int)
         (tmp___1_main Int)
         (p_main Int)
         (EREAD Int)
         (tmp___2_main Int)
         (tmp___3_main Int)
         (tmp___0_main__SSA__phi_4 Int)
         (p_main__SSA__blk_4_1 Int)
         (tmp___0_main Int)
         (tmp___3_main__SSA__blk_0_1 Int)
         (EWRITE Int)
         (tmp___2_main__SSA__phi_4 Int)
         (BLOCK_END (Array Int Int))
         (DEREF (Array Int Int))
         (BLOCK_BEGIN (Array Int Int))
         (UNCHECKED (Array Int Int)))
  (let ((a!1 (or (= (select UNCHECKED VV) 1)
                 (and (<= (select BLOCK_BEGIN VV) VV)
                      (< VV (select BLOCK_END VV))
                      true)
                 false)))
    (=> (and (not a!1)
             (k_33 EREAD
                   EWRITE
                   tmp___0_main__SSA__phi_4
                   p_main
                   tmp___0_main
                   tmp___1_main
                   tmp___2_main
                   tmp___2_main__SSA__phi_4
                   tmp___3_main
                   tmp___3_main__SSA__blk_0_1
                   BLOCK_END
                   DEREF
                   BLOCK_BEGIN
                   UNCHECKED)
             (k_31 EREAD
                   EWRITE
                   tmp___1_main__SSA__phi_4
                   p_main
                   tmp___0_main
                   tmp___1_main
                   tmp___2_main
                   tmp___2_main__SSA__phi_4
                   tmp___3_main
                   tmp___3_main__SSA__blk_0_1
                   BLOCK_END
                   DEREF
                   BLOCK_BEGIN
                   UNCHECKED)
             (k_32 EREAD
                   EWRITE
                   tmp___2_main__SSA__phi_4
                   p_main
                   tmp___0_main
                   tmp___1_main
                   tmp___2_main
                   tmp___2_main__SSA__phi_4
                   tmp___3_main
                   tmp___3_main__SSA__blk_0_1
                   BLOCK_END
                   DEREF
                   BLOCK_BEGIN
                   UNCHECKED)
             (= p_main__SSA__blk_4_1 tmp___2_main__SSA__phi_4)
             (not (= p_main__SSA__blk_4_1 0))
             (< VV (+ p_main__SSA__blk_4_1 4))
             (<= p_main__SSA__blk_4_1 VV)
             (= (select UNCHECKED VV) (select UNCHECKED p_main__SSA__blk_4_1))
             (= (select BLOCK_END VV) (select BLOCK_END p_main__SSA__blk_4_1))
             (= (select BLOCK_BEGIN VV)
                (select BLOCK_BEGIN p_main__SSA__blk_4_1))
             true)
        false))))
(assert (forall ((tmp___1_main__SSA__phi_4 Int)
         (VV Int)
         (p_main Int)
         (EREAD Int)
         (tmp___2_main Int)
         (tmp___3_main Int)
         (tmp___1_main Int)
         (__cil_tmp8_main Int)
         (__cil_tmp7_main Int)
         (p_main__SSA__blk_4_1 Int)
         (tmp___0_main__SSA__phi_4 Int)
         (lqn_1 Int)
         (tmp___0_main Int)
         (tmp___3_main__SSA__blk_0_1 Int)
         (EWRITE Int)
         (tmp___2_main__SSA__phi_4 Int)
         (BLOCK_END (Array Int Int))
         (DEREF (Array Int Int))
         (BLOCK_BEGIN (Array Int Int))
         (UNCHECKED (Array Int Int)))
  (let ((a!1 (= lqn_1
                (select DEREF (+ (select BLOCK_BEGIN p_main__SSA__blk_4_1) 0)))))
  (let ((a!2 (and (not (not (= VV 0)))
                  (k_29 lqn_1
                        EREAD
                        EWRITE
                        lqn_1
                        p_main
                        tmp___0_main
                        tmp___1_main
                        tmp___2_main
                        tmp___3_main
                        BLOCK_END
                        DEREF
                        BLOCK_BEGIN
                        UNCHECKED)
                  (k_33 EREAD
                        EWRITE
                        tmp___0_main__SSA__phi_4
                        p_main
                        tmp___0_main
                        tmp___1_main
                        tmp___2_main
                        tmp___2_main__SSA__phi_4
                        tmp___3_main
                        tmp___3_main__SSA__blk_0_1
                        BLOCK_END
                        DEREF
                        BLOCK_BEGIN
                        UNCHECKED)
                  (k_31 EREAD
                        EWRITE
                        tmp___1_main__SSA__phi_4
                        p_main
                        tmp___0_main
                        tmp___1_main
                        tmp___2_main
                        tmp___2_main__SSA__phi_4
                        tmp___3_main
                        tmp___3_main__SSA__blk_0_1
                        BLOCK_END
                        DEREF
                        BLOCK_BEGIN
                        UNCHECKED)
                  (k_32 EREAD
                        EWRITE
                        tmp___2_main__SSA__phi_4
                        p_main
                        tmp___0_main
                        tmp___1_main
                        tmp___2_main
                        tmp___2_main__SSA__phi_4
                        tmp___3_main
                        tmp___3_main__SSA__blk_0_1
                        BLOCK_END
                        DEREF
                        BLOCK_BEGIN
                        UNCHECKED)
                  (= __cil_tmp7_main lqn_1)
                  (= __cil_tmp8_main (ite (= __cil_tmp7_main 3) 1 0))
                  a!1
                  (= p_main__SSA__blk_4_1 tmp___2_main__SSA__phi_4)
                  (not (= p_main__SSA__blk_4_1 0))
                  (= VV __cil_tmp8_main)
                  true)))
    (=> a!2 false)))))
(assert (forall ((VV Int)
         (p_main Int)
         (EREAD Int)
         (tmp___2_main Int)
         (tmp___3_main Int)
         (tmp___0_main Int)
         (tmp___1_main Int)
         (A12_Ix_0 Int)
         (tmp___3_main__SSA__blk_0_1 Int)
         (EWRITE Int)
         (BLOCK_END (Array Int Int))
         (DEREF (Array Int Int))
         (BLOCK_BEGIN (Array Int Int))
         (UNCHECKED (Array Int Int)))
  (=> (and (= tmp___3_main tmp___3_main)
           (= tmp___2_main tmp___2_main)
           (= tmp___1_main tmp___1_main)
           (= tmp___0_main tmp___0_main)
           (= p_main p_main)
           (= VV VV)
           (= EWRITE EWRITE)
           (= EREAD EREAD)
           (= A12_Ix_0 A12_Ix_0)
           (= VV A12_Ix_0)
           (not (= tmp___3_main__SSA__blk_0_1 0))
           (k_23 A12_Ix_0
                 EREAD
                 EWRITE
                 A12_Ix_0
                 BLOCK_END
                 DEREF
                 BLOCK_BEGIN
                 UNCHECKED)
           true)
      (k_29 A12_Ix_0
            EREAD
            EWRITE
            VV
            p_main
            tmp___0_main
            tmp___1_main
            tmp___2_main
            tmp___3_main
            BLOCK_END
            DEREF
            BLOCK_BEGIN
            UNCHECKED))))
(assert (forall ((VV Int)
         (p_main Int)
         (EREAD Int)
         (tmp___2_main Int)
         (tmp___3_main Int)
         (tmp___0_main Int)
         (tmp___1_main Int)
         (tmp___3_main__SSA__blk_0_1 Int)
         (EWRITE Int)
         (BLOCK_END (Array Int Int))
         (DEREF (Array Int Int))
         (BLOCK_BEGIN (Array Int Int))
         (UNCHECKED (Array Int Int)))
  (=> (and (= tmp___3_main__SSA__blk_0_1 tmp___3_main__SSA__blk_0_1)
           (= tmp___3_main tmp___3_main)
           (= tmp___2_main tmp___2_main)
           (= tmp___1_main tmp___1_main)
           (= tmp___0_main tmp___0_main)
           (= p_main p_main)
           (= VV VV)
           (= EWRITE EWRITE)
           (= EREAD EREAD)
           (k_24 EREAD EWRITE VV BLOCK_END DEREF BLOCK_BEGIN UNCHECKED)
           (not (= tmp___3_main__SSA__blk_0_1 0))
           true)
      (k_35 EREAD
            EWRITE
            VV
            p_main
            tmp___0_main
            tmp___1_main
            tmp___2_main
            tmp___3_main
            tmp___3_main__SSA__blk_0_1
            BLOCK_END
            DEREF
            BLOCK_BEGIN
            UNCHECKED))))
(assert (forall ((VV Int)
         (p_main Int)
         (EREAD Int)
         (tmp___2_main Int)
         (tmp___3_main Int)
         (tmp___0_main Int)
         (tmp___1_main Int)
         (A12_Ix_0 Int)
         (tmp___3_main__SSA__blk_0_1 Int)
         (EWRITE Int)
         (BLOCK_END (Array Int Int))
         (DEREF (Array Int Int))
         (BLOCK_BEGIN (Array Int Int))
         (UNCHECKED (Array Int Int)))
  (let ((a!1 (and (= tmp___3_main tmp___3_main)
                  (= tmp___2_main tmp___2_main)
                  (= tmp___1_main tmp___1_main)
                  (= tmp___0_main tmp___0_main)
                  (= p_main p_main)
                  (= VV VV)
                  (= EWRITE EWRITE)
                  (= EREAD EREAD)
                  (= A12_Ix_0 A12_Ix_0)
                  (= VV A12_Ix_0)
                  (not (not (= tmp___3_main__SSA__blk_0_1 0)))
                  (k_20 A12_Ix_0
                        EREAD
                        EWRITE
                        A12_Ix_0
                        BLOCK_END
                        DEREF
                        BLOCK_BEGIN
                        UNCHECKED)
                  true)))
    (=> a!1
        (k_29 A12_Ix_0
              EREAD
              EWRITE
              VV
              p_main
              tmp___0_main
              tmp___1_main
              tmp___2_main
              tmp___3_main
              BLOCK_END
              DEREF
              BLOCK_BEGIN
              UNCHECKED)))))
(assert (forall ((VV Int)
         (p_main Int)
         (EREAD Int)
         (tmp___2_main Int)
         (tmp___3_main Int)
         (tmp___0_main Int)
         (tmp___1_main Int)
         (tmp___3_main__SSA__blk_0_1 Int)
         (EWRITE Int)
         (BLOCK_END (Array Int Int))
         (DEREF (Array Int Int))
         (BLOCK_BEGIN (Array Int Int))
         (UNCHECKED (Array Int Int)))
  (let ((a!1 (and (= tmp___3_main__SSA__blk_0_1 tmp___3_main__SSA__blk_0_1)
                  (= tmp___3_main tmp___3_main)
                  (= tmp___2_main tmp___2_main)
                  (= tmp___1_main tmp___1_main)
                  (= tmp___0_main tmp___0_main)
                  (= p_main p_main)
                  (= VV VV)
                  (= EWRITE EWRITE)
                  (= EREAD EREAD)
                  (k_21 EREAD EWRITE VV BLOCK_END DEREF BLOCK_BEGIN UNCHECKED)
                  (not (not (= tmp___3_main__SSA__blk_0_1 0)))
                  true)))
    (=> a!1
        (k_34 EREAD
              EWRITE
              VV
              p_main
              tmp___0_main
              tmp___1_main
              tmp___2_main
              tmp___3_main
              tmp___3_main__SSA__blk_0_1
              BLOCK_END
              DEREF
              BLOCK_BEGIN
              UNCHECKED)))))
(assert (forall ((VV Int)
         (p_main Int)
         (EREAD Int)
         (tmp___2_main Int)
         (tmp___3_main Int)
         (tmp___0_main Int)
         (tmp___1_main Int)
         (A12_Ix_0 Int)
         (EWRITE Int)
         (BLOCK_END (Array Int Int))
         (DEREF (Array Int Int))
         (BLOCK_BEGIN (Array Int Int))
         (UNCHECKED (Array Int Int)))
  (=> (and (= tmp___3_main tmp___3_main)
           (= tmp___2_main tmp___2_main)
           (= tmp___1_main tmp___1_main)
           (= tmp___0_main tmp___0_main)
           (= p_main p_main)
           (= VV VV)
           (= EWRITE EWRITE)
           (= EREAD EREAD)
           (= A12_Ix_0 A12_Ix_0)
           (= VV A12_Ix_0)
           false
           true)
      (k_29 A12_Ix_0
            EREAD
            EWRITE
            VV
            p_main
            tmp___0_main
            tmp___1_main
            tmp___2_main
            tmp___3_main
            BLOCK_END
            DEREF
            BLOCK_BEGIN
            UNCHECKED))))

(check-sat)
